NAME : amz0009.142574_103574.tour
COMMENT : Cost = 142574_103574
COMMENT : Found by LKH-AMZ [Keld Helsgaun] Sun May 11 14:22:55 2025
COMMENT : TW viol.: 0 #: 0
TYPE : TOUR
DIMENSION : 113
TOUR_SECTION
69
78
43
96
31
108
34
9
45
109
103
65
42
104
3
35
10
17
68
93
49
67
53
98
70
44
64
4
88
71
62
46
72
76
48
15
86
5
57
99
94
100
40
97
39
21
20
11
77
37
73
105
102
110
66
6
101
89
79
7
91
27
111
56
24
12
32
25
90
52
50
55
8
51
107
19
84
82
28
26
92
112
95
58
38
59
63
87
36
113
85
83
16
13
14
1
30
54
60
106
41
22
29
23
61
81
74
2
80
75
18
47
33
-1
EOF
